9 6 -1 2 -1 6 0 10 8 -1 
9 3 5 2 10 8 4 10 5 -1 
5 1 9 3 6 8 10 10 10 -1 
0 7 0 6 8 7 7 7 4 -1 
5 8 5 2 7 -1 1 7 1 -1 
-1 7 6 -1 4 1 -1 1 4 -1 
1 7 8 4 6 3 10 -1 8 -1 
-1 6 3 2 10 10 -1 5 6 -1 
4 3 2 4 0 3 9 5 10 -1 
7 1 1 6 7 9 -1 7 10 -1 
